6528.71
0 1 2 3 4 5 6 7 8 9 10 11 12 13 14 15 16 17 18 19 20 21 22 24 25 28 31 32 0
0 23 26 27 30 33 0
0 29 34 35 36 37 38 39 40 41 43 45 46 48 51 53 54 0
0 42 44 47 49 50 52 55 56 57 61 65 68 91 0
0 58 59 60 62 63 64 66 67 69 70 71 72 75 77 0
0 73 74 76 78 79 80 81 82 83 84 85 87 90 0
0 86 88 89 92 93 94 95 96 98 99 100 101 102 104 105 106 108 109 116 120 124 132 0
0 97 103 107 110 115 118 141 0
0 111 112 113 117 119 123 129 0
0 114 121 131 136 0
0 122 125 126 127 128 133 134 144 0
0 130 135 137 139 140 145 146 149 0
0 138 142 148 150 0
0 143 147 0
